%%% static parameters %%%
timespan = 1;
Clients_N = [1000];
Demand_W = [15];
Lt0 = [4];
Lt1 = [4];
SS_ = [0.85];
DS_D = [20];
K = [200];
MA = [500];
HC = [0.05];
%%% dynamic parameters %%%
lost_ratio_sales_ret_th = 0.008923256770913464;
lost_ratio_sales_ret_w = 8;
lost_ratio_sales_dis_th = 0.0078166628976688;
lost_ratio_sales_dis_w = 94;
lost_ratio_sales_fac_th = 0.004473372737550463;
lost_ratio_sales_fac_w = 35;
stock_customer_MA_mean_relative_th = 0.7026140858786343;
stock_customer_MA_mean_relative_w = 56;
stock_distributor_MA_mean_relative_th = 0.3778304269178865;
stock_distributor_MA_mean_relative_w = 98;
stock_retailer_MA_mean_relative_th = 0.6117698346920681;
stock_retailer_MA_mean_relative_w = 100;
stock_factory_MA_mean_relative_th = 0.11389327052634612;
stock_factory_MA_mean_relative_w = 31;
